
Gurobi 11.0.3 (linux64) logging started Mon Aug 25 15:10:50 2025

Set parameter LogFile to value "/home/yihong/Coding/OR_SUC/SUC_epstheta_results_bigM100000_thread4/case24_ieee_rts_theta0.1_epsilon0.1_gurobi_seed180000_num_gen100_N_WDR50_load_scaling_factor1_proposed_eps_T14quadra_cost_bc1.05.txt"
Set parameter TimeLimit to value 3600
Gurobi Optimizer version 11.0.3 build v11.0.3rc0 (linux64 - "Ubuntu 20.04.6 LTS")

CPU model: AMD EPYC 7532 32-Core Processor, instruction set [SSE2|AVX|AVX2]
Thread count: 64 physical cores, 128 logical processors, using up to 4 threads

Academic license 2399124 - for non-commercial use only - registered to yi___@ed.ac.uk
Optimize a model with 33318 rows, 17411 columns and 766758 nonzeros
Model fingerprint: 0x1e486fe5
Model has 1400 quadratic constraints
Variable types: 16011 continuous, 1400 integer (1400 binary)
Coefficient statistics:
  Matrix range     [3e-04, 2e+03]
  QMatrix range    [2e-03, 8e-03]
  QLMatrix range   [3e-01, 6e+01]
  Objective range  [1e+00, 1e+00]
  Bounds range     [1e+00, 1e+00]
  RHS range        [1e+00, 9e+03]
Presolve removed 27351 rows and 7489 columns
Presolve time: 0.24s
Presolved: 5967 rows, 9922 columns, 33263 nonzeros
Presolved model has 1400 quadratic constraint(s)
Variable types: 8522 continuous, 1400 integer (1400 binary)

Root relaxation: objective 1.679702e+04, 5172 iterations, 0.13 seconds (0.18 work units)

    Nodes    |    Current Node    |     Objective Bounds      |     Work
 Expl Unexpl |  Obj  Depth IntInf | Incumbent    BestBd   Gap | It/Node Time

H    0     0                    344883.77390 16797.0159  95.1%     -    0s
*    0     0               0    344883.77390 16797.0159  95.1%     -    0s
     0     0 159216.064    0  476 344883.774 159216.064  53.8%     -    1s
     0     0 325164.687    0  154 344883.774 325164.687  5.72%     -    1s
     0     0 325260.697    0   59 344883.774 325260.697  5.69%     -    1s
     0     0 325263.131    0   45 344883.774 325263.131  5.69%     -    1s
     0     0 325263.223    0   45 344883.774 325263.223  5.69%     -    1s
     0     0 325263.223    0   45 344883.774 325263.223  5.69%     -    2s
     0     0 325263.290    0   45 344883.774 325263.290  5.69%     -    2s
     0     2 325263.290    0   45 344883.774 325263.290  5.69%     -    2s
   119   127 325356.612   30   21 344883.774 325273.730  5.69%  31.0    5s
H  157   150                    325444.03483 325290.735  0.05%  30.7    5s
*  157   150              34    325444.03483 325290.735  0.05%  30.9    5s

Cutting planes:
  Gomory: 45
  Lift-and-project: 16
  Implied bound: 189
  MIR: 20
  Flow cover: 116
  RLT: 191
  Relax-and-lift: 130

Explored 158 nodes (17805 simplex iterations) in 5.90 seconds (5.79 work units)
Thread count was 4 (of 128 available processors)

Solution count 3: 325444 325444 344884 

Optimal solution found (tolerance 1.00e-03)
Warning: max constraint violation (1.9848e-08) exceeds tolerance
Best objective 3.254440348275e+05, best bound 3.252907354173e+05, gap 0.0471%

Gurobi 11.0.3 (linux64) logging started Mon Aug 25 15:10:57 2025

Set parameter LogFile to value "/home/yihong/Coding/OR_SUC/SUC_epstheta_results_bigM100000_thread4/case24_ieee_rts_theta0.1_epsilon0.1_gurobi_seed180000_num_gen100_N_WDR50_load_scaling_factor1_proposed_eps_T14quadra_cost_bc1.05.txt"
Set parameter TimeLimit to value 3600
Gurobi Optimizer version 11.0.3 build v11.0.3rc0 (linux64 - "Ubuntu 20.04.6 LTS")

CPU model: AMD EPYC 7532 32-Core Processor, instruction set [SSE2|AVX|AVX2]
Thread count: 64 physical cores, 128 logical processors, using up to 4 threads

Academic license 2399124 - for non-commercial use only - registered to yi___@ed.ac.uk
Optimize a model with 33318 rows, 17412 columns and 771047 nonzeros
Model fingerprint: 0x7e64c124
Model has 1401 quadratic constraints
Variable types: 16012 continuous, 1400 integer (1400 binary)
Coefficient statistics:
  Matrix range     [3e-04, 2e+03]
  QMatrix range    [2e-03, 5e+01]
  QLMatrix range   [3e-01, 6e+01]
  Objective range  [1e+00, 1e+00]
  Bounds range     [1e-01, 1e+00]
  RHS range        [1e+00, 3e+05]
  QRHS range       [5e+00, 5e+00]
Presolve removed 24793 rows and 6211 columns
Presolve time: 0.28s
Presolved: 9927 rows, 12601 columns, 50940 nonzeros
Presolved model has 1400 quadratic constraint(s)
Presolved model has 1 bilinear constraint(s)

Solving non-convex MIQCP

Variable types: 11199 continuous, 1402 integer (1402 binary)

Root relaxation: objective 1.456182e-03, 14479 iterations, 1.06 seconds (1.47 work units)

    Nodes    |    Current Node    |     Objective Bounds      |     Work
 Expl Unexpl |  Obj  Depth IntInf | Incumbent    BestBd   Gap | It/Node Time

     0     0    0.00146    0   32          -    0.00146      -     -    1s
     0     0    0.00146    0   26          -    0.00146      -     -    2s
H    0     0                       0.0102438    0.00146  85.8%     -    2s
     0     0    0.00897    0   41    0.01024    0.00897  12.4%     -    2s
     0     0    0.00897    0   27    0.01024    0.00897  12.4%     -    3s
     0     0    0.00897    0   41    0.01024    0.00897  12.4%     -    3s
     0     0    0.00898    0   41    0.01024    0.00898  12.4%     -    3s
     0     0    0.00898    0   26    0.01024    0.00898  12.4%     -    3s
     0     0    0.00898    0   25    0.01024    0.00898  12.4%     -    4s
H    0     0                       0.0093624    0.00898  4.11%     -    4s
     0     0    0.00911    0   25    0.00936    0.00911  2.72%     -    4s
     0     0    0.00911    0   25    0.00936    0.00911  2.71%     -    4s
     0     0    0.00911    0   25    0.00936    0.00911  2.71%     -    4s
     0     0    0.00911    0   25    0.00936    0.00911  2.71%     -    4s
H    0     0                       0.0092495    0.00911  1.52%     -    4s
     0     2    0.00911    0   25    0.00925    0.00911  1.48%     -    4s
    23    30    0.00912    7    2    0.00925    0.00912  1.42%  19.6    5s
H   96    86                       0.0091496    0.00912  0.34%  17.6    8s
*   96    86              21       0.0091496    0.00912  0.34%  17.8    8s
H  108    84                       0.0091492    0.00912  0.34%  17.2    8s
*  108    84              24       0.0091492    0.00912  0.34%  17.3    8s
H  122    87                       0.0091490    0.00912  0.34%  17.3    9s
   214    80     cutoff   12         0.00915    0.00913  0.20%  19.0   10s

Cutting planes:
  Gomory: 13
  Implied bound: 36
  MIR: 8
  Flow cover: 7
  Inf proof: 2
  RLT: 6

Explored 305 nodes (21906 simplex iterations) in 10.41 seconds (12.01 work units)
Thread count was 4 (of 128 available processors)

Solution count 6: 0.00914901 0.00914922 0.00914964 ... 0.0102438

Optimal solution found (tolerance 1.00e-03)
Best objective 9.149009484370e-03, best bound 9.142510925106e-03, gap 0.0710%
